c generated by sgen
p cnf 61 132
-2 -3 -4 0
-1 -3 -4 0
-1 -2 -4 0
-1 -2 -3 0
-6 -7 -8 0
-5 -7 -8 0
-5 -6 -8 0
-5 -6 -7 0
-10 -11 -12 0
-9 -11 -12 0
-9 -10 -12 0
-9 -10 -11 0
-14 -15 -16 0
-13 -15 -16 0
-13 -14 -16 0
-13 -14 -15 0
-18 -19 -20 0
-17 -19 -20 0
-17 -18 -20 0
-17 -18 -19 0
-22 -23 -24 0
-21 -23 -24 0
-21 -22 -24 0
-21 -22 -23 0
-26 -27 -28 0
-25 -27 -28 0
-25 -26 -28 0
-25 -26 -27 0
-30 -31 -32 0
-29 -31 -32 0
-29 -30 -32 0
-29 -30 -31 0
-34 -35 -36 0
-33 -35 -36 0
-33 -34 -36 0
-33 -34 -35 0
-38 -39 -40 0
-37 -39 -40 0
-37 -38 -40 0
-37 -38 -39 0
-42 -43 -44 0
-41 -43 -44 0
-41 -42 -44 0
-41 -42 -43 0
-46 -47 -48 0
-45 -47 -48 0
-45 -46 -48 0
-45 -46 -47 0
-50 -51 -52 0
-49 -51 -52 0
-49 -50 -52 0
-49 -50 -51 0
-54 -55 -56 0
-53 -55 -56 0
-53 -54 -56 0
-53 -54 -55 0
-57 -58 -59 0
-57 -58 -60 0
-57 -58 -61 0
-57 -59 -60 0
-57 -59 -61 0
-57 -60 -61 0
-58 -59 -60 0
-58 -59 -61 0
-58 -60 -61 0
-59 -60 -61 0
32 13 24 0
33 13 24 0
33 32 24 0
33 32 13 0
44 20 23 0
45 20 23 0
45 44 23 0
45 44 20 0
48 50 55 0
25 50 55 0
25 48 55 0
25 48 50 0
8 9 18 0
52 9 18 0
52 8 18 0
52 8 9 0
7 1 21 0
40 1 21 0
40 7 21 0
40 7 1 0
16 26 61 0
42 26 61 0
42 16 61 0
42 16 26 0
57 51 15 0
3 51 15 0
3 57 15 0
3 57 51 0
43 49 37 0
35 49 37 0
35 43 37 0
35 43 49 0
17 29 60 0
39 29 60 0
39 17 60 0
39 17 29 0
47 34 58 0
6 34 58 0
6 47 58 0
6 47 34 0
10 38 14 0
53 38 14 0
53 10 14 0
53 10 38 0
4 30 12 0
46 30 12 0
46 4 12 0
46 4 30 0
2 36 28 0
19 36 28 0
19 2 28 0
19 2 36 0
41 31 54 0
5 31 54 0
5 41 54 0
5 41 31 0
11 59 22 0
11 59 27 0
11 59 56 0
11 22 27 0
11 22 56 0
11 27 56 0
59 22 27 0
59 22 56 0
59 27 56 0
22 27 56 0
